# 61448
param n := 25;
param s := 1;
set E :=  (0,1) (0,3) (0,17) (1,15) (2,20) (3,7) (3,14) (4,15) (4,18) (5,19) (5,20) (6,7) (6,9) (6,11) (7,12) (7,16) (7,21) (7,22) (7,24) (8,15) (8,16) (10,12) (11,23) (12,14) (13,14) (13,18) (14,19) (14,20) (15,21) (17,20) (18,21) (20,24) (21,24) (23,24);
